(set-logic QF_S)
(declare-fun T_66 () Bool)
(declare-fun T_67 () Bool)
(declare-fun T_SELECT_10 () Bool)
(declare-fun I0_154 () Int)
(declare-fun I0_158 () Int)
(declare-fun I1_154 () Int)
(declare-fun I1_158 () Int)
(declare-fun I2_154 () Int)
(declare-fun I2_158 () Int)
(declare-fun PCTEMP_LHS_40 () Int)
(declare-fun T_6b () Int)
(declare-fun T0_149 () String)
(declare-fun T1_149 () String)
(declare-fun T_64 () String)
(assert (= T_64 (str.++ T0_149 T1_149)))
(assert (not (str.in.re T1_149 (str.to.re "="))))
(assert T_67)
(assert (= T_67 (not T_66)))
(assert (= T_66 (= PCTEMP_LHS_40 (- 1))))
(assert (= I0_154 (- PCTEMP_LHS_40 0)))
(assert (>= PCTEMP_LHS_40 0))
(assert (= I2_154 I1_154))
(assert (<= PCTEMP_LHS_40 I1_154))
(assert (>= I2_158 T_6b))
(assert (= I2_158 I1_158))
(assert (<= I2_158 I1_158))
(assert (= I0_158 (- I2_158 T_6b)))
(assert (>= T_6b 0))
(assert (= T_6b (+ PCTEMP_LHS_40 1)))
(assert (= PCTEMP_LHS_40 (- 1)))
(assert (= T_SELECT_10 (not (= PCTEMP_LHS_40 (- 1)))))
(assert (= 0 (str.len T0_149))) ; len 0
(assert (not T_SELECT_10))
(check-sat)
